Route #1: 193 194 195 196 197 146 147 198 199 200 201 202 203 204 205 206
Route #2: 208 209 210 211 212 159 160 213 214 215 216 217 218 219 220 221
Route #3: 223 224 225 226 227 172 173 228 229 230 231 232 233 234 235 236
Route #4: 238 239 240 241 242 185 186 243 244 245 246 247 248 249 250 251
Route #5: 154 153 207 152 142 143 144 145 102 148 149 150 151 105
Route #6: 167 166 222 165 155 156 157 158 113 161 162 163 164 116
Route #7: 180 179 237 178 168 169 170 171 124 174 175 176 177 127
Route #8: 141 192 252 191 181 182 183 184 135 187 188 189 190 138
Route #9: 139 140 97 98 99 100 101 103 104 65 64
Route #10: 106 107 108 109 110 111 112 114 115 74 73
Route #11: 117 118 119 120 121 122 123 125 126 83 82
Route #12: 128 129 130 131 132 133 134 136 137 92 91
Route #13: 33 61 62 63 36 66 67 68 69
Route #14: 40 70 71 72 43 75 76 77 78
Route #15: 47 79 80 81 50 84 85 86 87
Route #16: 54 88 89 90 57 93 94 95 96
Route #17: 14 15 34 35 37 38 39
Route #18: 19 20 41 42 44 45 46
Route #19: 24 25 48 49 51 52 53
Route #20: 29 30 55 56 58 59 60
Route #21: 2 16 17 18
Route #22: 5 21 22 23
Route #23: 8 26 27 28
Route #24: 11 31 32 13
Route #25: 1 12
Route #26: 3 4
Route #27: 6 7
Route #28: 9 10
Cost 967.2764891702182